out/bwp_3_5_1_lp.out
10
0 0    1 1
0 2    1 3
0 4    1 5
1 6    2 7
1 8    2 9
